pokus1
pokus1
----------
#FALSE#
40
215
230
230
230
0
230
230
230
0
40
215
235
235
235
235
230
230
0
0
40
215
230
230
230
0
230
230
230
0
230
230
230
230
230
0
0
0
0
0
0
0
0
0
0
0
0
0
0
0
0
0
0
0
0
0
0
0
0
0
0
0
0
0
0
0
0
0
0
0
0
0
0
0
0
0
0
0
0
0
0
0
0
0
0
0
0
0
0
0
0
0
0
0
0
0
0
0
0
0
0
0
0
0
0
0
0
0
0
0
0
0
0
0
0
0
0
0
0
0
0
0
0
0
0
0
0
0
300
980
0
85
0
0
21
15
125
2
12
125
2
0
0
0.9500000000000001
25
0.9500000000000001
50
0.9500000000000001
25
0
0
0
0
0
0
0
0
0
0
0
0
0
0
0
0
0
0
0
0
0
0
0
0
0
0
0
0
0
0
0
0
0
0
21.25
75.0
42.5
150.0
21.25
75.0
0
0
0
0
0
0
0
0
0
0
0
0
0
0
0
0
0
0
0
31.601064321318265
100.0
0.0
0.0
0.0
0.0
0.0
100.0
0.0
0.0
0.0
0.0
0.0
100.0
0.0
0.0
0.0
0.0
0.0
0
0
0
0
0
0
0
0
0
0
0
0
0
0
0
0
0
0
0
0
0
0
0
0
0
0
0
0
0
0
0
0
0
0
0
0
0
0
0
0
0
0


































































































































































0
0
0
0
0
0
0
0
0
0
0
0
0
0
0
0
0
0
0
0
0
0
0
0
0
0
0
0
0
0
0
0
0
0
0
0
0
0
0
0
0
0
0
0
0
0
0
0
0
0
0
0
0
0
0.95
0.0
0.0
0.0
0.0
0.0
0.95
0.0
0.0
0.0
0.0
0.0
0.95
0.0
0.0
0.0
0.0
0.0
0
0
0
0
0
0
0
0
0
0
0
0
0
0
0
0
0
0
0
0
0
0
0
0
0
0
0
0
0
0
0
0
0
0
0
0





















































